NAME: CMT5_4
TYPE: CVRP
COMMENT: 1291.29 - Cluster Nr.4
DIMENSION: 12
CAPACITY: 200
EDGE_WEIGHT_TYPE: EUC_2D
NODE_COORD_TYPE: TWOD_COORDS
NODE_COORD_SECTION: 
8 7 38
4 10 43
5 6 38
6 12 42
7 35 35
9 7 43
2 17 33
12 20 40
1 17 34
11 14 37
3 21 36
10 12 38
DEPOT_SECTION: 
7
-1
DEMAND_SECTION: 
5 16
2 41
7 0
3 19
10 5
4 9
12 12
8 28
6 21
1 3
11 11
9 27
EOF
